NAME : LPS-n18-m240
COMMENT : (Lartu-Peter-Santi Plot, instance 6240 out of 39200. 18 customers.)
TYPE : CVRP
DIMENSION : 18
EDGE_WEIGHT_TYPE : EUC_2D
CAPACITY : 126
NODE_COORD_SECTION
 1 14 51
 2 35 57
 3 17 95
 4 74 68
 5 1 58
 6 4 64
 7 15 62
 8 94 84
 9 33 40
 10 45 9
 11 47 12
 12 95 51
 13 87 30
 14 33 76
 15 95 67
 16 85 85
 17 98 36
 18 97 15
DEMAND_SECTION
1 0
2 35
3 20
4 46
5 67
6 68
7 72
8 79
9 57
10 126
11 112
12 83
13 6
14 38
15 114
16 28
17 115
18 60
DEPOT_SECTION
 1
 -1
EOF
